p tw 119 129
1 2
2 32
3 14
4 5
5 6
5 8
6 7
7 20
8 9
9 10
10 11
11 12
12 13
13 15
14 24
15 16
16 17
17 18
17 20
18 19
19 20
20 21
21 22
22 23
24 25
25 26
26 27
27 28
28 29
29 30
30 31
30 40
31 33
32 43
33 34
34 35
35 36
36 37
37 38
38 39
39 40
39 22
40 41
41 42
42 44
43 54
44 45
45 46
46 47
47 48
48 49
49 50
50 51
51 52
52 53
53 55
54 65
55 56
55 66
56 57
57 58
58 59
59 60
60 61
61 62
62 63
63 64
63 66
64 22
65 76
65 22
66 67
67 68
68 69
69 70
69 45
70 71
71 72
72 73
73 74
74 75
75 77
76 87
77 78
78 79
79 80
80 81
81 82
82 83
83 84
84 85
85 86
86 88
87 98
88 89
88 71
89 90
90 91
91 92
92 93
93 94
94 95
95 96
96 97
97 99
98 109
99 100
100 101
101 102
102 103
103 104
104 105
105 106
106 22
107 108
108 110
109 3
109 107
110 111
111 112
112 113
112 22
113 114
114 115
115 116
116 117
117 118
118 119
119 4
